137
1000000
42279
431461
303109
223586
28991
437685
59196
358335
219644
190546
387590
311436
452327
310678
477327
31180
130242
122854
284858
230604
453790
128595
220049
323155
23713
248815
61378
72675
1937
5335
37571
19121
101928
315626
220042
184613
179216
69580
446046
318403
246161
294628
78387
321
148043
241892
139981
55974
102604
122984
163738
116925
388297
302520
393050
315393
157682
229865
60991
132533
163199
296072
248752
416455
396739
253045
104080
212524
392868
147897
114023
185206
397024
260573
260926
126810
480122
44222
438182
336343
191928
132530
29463
483138
440510
351153
119083
366618
98133
222813
303908
12504
12830
248879
258115
479819
395312
311281
150576
466516
284562
80179
426023
185439
398635
185244
163488
23625
249829
20237
17125
70176
50469
217708
90777
271181
118821
216116
234407
192843
167971
343457
169792
137938
333454
391626
179999
179358
447213
386044
181109
42009
53444
355204
129077
87003
410762
